179 195 183 134 103 9 178 120 19 12 66 34 173 25 57 22 142 80 62 89 16 110 45 148 14 197 156 159 58 111 117 32 76 54 94 170 11 139 7 48 187 114 161 166 42 130 87 184 128 188 100 106 105 60 83 86 64 102 68 65 28 52 118 129 0 81 108 99 55 146 61 107 3 73 49 116 50 71 24 143 131 158 27 194 21 127 192 35 44 135 185 136 181 121 113 132 119 2 123 175 67 10 17 88 85 90 47 109 152 198 39 155 122 104 98 172 199 36 164 115 63 171 82 78 180 147 13 59 165 124 18 38 4 177 69 30 169 189 46 79 191 23 163 95 75 74 154 150 51 33 93 174 40 6 196 84 186 96 144 138 1 151 101 72 8 168 112 31 157 20 29 41 70 77 141 5 162 140 126 43 176 97 137 145 53 91 167 15 125 133 190 56 37 182 160 149 92 153 193 26 

